0 36 
1 38 
2 40 
3 41 
4 40 
5 39 
6 39 
7 38 
8 34 
9 32 
10 28 
11 30 
12 29 
13 29 
14 28 
15 28 
16 27 
17 25 
18 25 
19 25 
20 24 
21 23 
22 23 
23 21 
24 20 
25 20 
26 21 
27 19 
28 17 
29 16 
30 14 
31 13 
32 11 
33 9 
34 6 
35 5 
36 4 
37 3 
38 1 
39 3 
40 2 
41 1 
42 0 
43 0 

